1524.8,37.14,44.51
1332.55,42.5,50.93
1476.59,38.35,45.96
1554.11,36.44,43.67
1426.99,39.68,47.56
1398.31,40.5,48.54
1381.48,40.99,49.13
1528.83,37.04,44.39
1500.97,37.73,45.22
1462.13,38.73,46.42
1520.71,37.24,44.63
1410.7,40.14,48.11
1449.07,39.08,46.84
1530.0,37.01,44.36
1344.84,42.11,50.46
1298.13,43.62,52.28
1296.15,43.69,52.36
1574.83,35.96,43.1
1610.13,35.17,42.15
1387.69,40.81,48.91
